problems/factor/f13.3.cnf
c Problem generated from wallace[fast] multiplication circuit
c by Paul Purdom and Amr Sabry
c
c Circuit for product = 13 [True,True,False,True]
c Variables for output [msb,...,lsb]: [37,29,28,12,6]
c Variables for first input [msb,...,lsb]: [3,2,1]
c Variables for second input [msb,...,lsb]: [5,4]
c
c
p cnf 37 133
1 4 -6 0
1 -4 -6 0
-1 4 -6 0
-1 -4 6 0
2 4 -7 0
2 -4 -7 0
-2 4 -7 0
-2 -4 7 0
3 4 -8 0
3 -4 -8 0
-3 4 -8 0
-3 -4 8 0
1 5 -9 0
1 -5 -9 0
-1 5 -9 0
-1 -5 9 0
2 5 -10 0
2 -5 -10 0
-2 5 -10 0
-2 -5 10 0
3 5 -11 0
3 -5 -11 0
-3 5 -11 0
-3 -5 11 0
7 9 -12 0
7 -9 12 0
-7 9 12 0
-7 -9 -12 0
7 9 -13 0
7 -9 -13 0
-7 9 -13 0
-7 -9 13 0
7 9 -14 0
7 -9 14 0
-7 9 14 0
-7 -9 14 0
8 10 -15 0
8 -10 15 0
-8 10 15 0
-8 -10 -15 0
8 10 -16 0
8 -10 -16 0
-8 10 -16 0
-8 -10 16 0
8 10 -17 0
8 -10 17 0
-8 10 17 0
-8 -10 17 0
6 12 -18 0
6 -12 18 0
-6 -12 -18 0
-6 12 18 0
13 14 -19 0
13 -14 19 0
-13 14 19 0
-13 -14 19 0
13 6 -20 0
13 -6 20 0
-13 6 20 0
-13 -6 20 0
19 20 -21 0
19 -20 -21 0
-19 20 -21 0
-19 -20 21 0
13 14 -22 0
13 -14 22 0
-13 14 22 0
-13 -14 22 0
22 13 -23 0
22 -13 -23 0
-22 13 -23 0
-22 -13 23 0
16 11 -24 0
16 -11 24 0
-16 -11 -24 0
-16 11 24 0
17 11 -25 0
17 -11 25 0
-17 -11 -25 0
-17 11 25 0
11 17 -26 0
11 -17 -26 0
-11 17 -26 0
-11 -17 26 0
11 16 -27 0
11 -16 -27 0
-11 16 -27 0
-11 -16 27 0
23 15 -28 0
23 -15 28 0
-23 -15 -28 0
-23 15 28 0
23 24 -29 0
23 -24 29 0
-23 25 -29 0
-23 -25 29 0
21 15 -30 0
21 -15 30 0
-21 -15 -30 0
-21 15 30 0
21 24 -31 0
21 -24 31 0
-21 25 -31 0
-21 -25 31 0
27 26 -32 0
27 -26 32 0
-27 26 32 0
-27 -26 32 0
27 21 -33 0
27 -21 33 0
-27 21 33 0
-27 -21 33 0
32 33 -34 0
32 -33 -34 0
-32 33 -34 0
-32 -33 34 0
27 26 -35 0
27 -26 35 0
-27 26 35 0
-27 -26 35 0
27 23 -36 0
27 -23 36 0
-27 23 36 0
-27 -23 36 0
35 36 -37 0
35 -36 -37 0
-35 36 -37 0
-35 -36 37 0
6 0
-12 0
28 0
29 0
-37 0


