performanceLessSmall/f13.3
#PROBLEM: f13.3 & longest chain length: 9 & average chain length: 2.45 & median chain length: 4.0 & varNum: 37 & clauseNum: 133 & chains: 40 & timeout: 30s 
#original chain with index 58: [73, 23, 43, 151, 154, 37, 17, 150, 34] 
#trying: [34, 23, 43, 154, 73, 37, 151, 150, 17]
0	Timeout 
#trying: [37, 23, 43, 151, 150, 17, 34, 73, 154]
1	1       7528736255
#trying: [37, 34, 73, 17, 23, 150, 151, 43, 154]
2	1       27784883148
#trying: [34, 37, 151, 150, 154, 73, 17, 23, 43]
3	Timeout 
#trying: [37, 17, 151, 34, 154, 23, 150, 43, 73]
4	1       1343012782
#trying: [73, 23, 151, 43, 37, 154, 17, 150, 34]
5	1       7037492826
#trying: [150, 43, 154, 17, 23, 34, 37, 151, 73]
6	Timeout 
#trying: [23, 17, 37, 34, 154, 43, 150, 73, 151]
7	1       1800749005
#trying: [23, 37, 43, 17, 34, 154, 151, 150, 73]
8	1       7161492773
#trying: [150, 23, 34, 154, 43, 17, 73, 151, 37]
9	Timeout 
